data/instances/vrp_files/train_56.vrp
NAME : 56
COMMENT : Generated instance No. 56
TYPE : CVRP
DIMENSION : 21
EDGE_WEIGHT_TYPE : EUC_2D
CAPACITY : 30
NODE_COORD_SECTION
 1 333 791
 2 616 556
 3 415 428
 4 540 696
 5 702 171
 6 500 411
 7 870 631
 8 532 115
 9 605 117
 10 337 142
 11 692 206
 12 391 895
 13 204 507
 14 419 18
 15 792 69
 16 474 560
 17 628 688
 18 253 9
 19 723 535
 20 836 821
 21 843 485
DEMAND_SECTION
1 0
2 3
3 3
4 2
5 9
6 3
7 5
8 9
9 8
10 2
11 3
12 2
13 8
14 6
15 6
16 9
17 8
18 4
19 4
20 9
21 1
DEPOT_SECTION
 1
 -1
EOF